1 1 0 0 0 1 1 1 
0 25 57 47 71 80 33 73 
25 0 74 33 17 41 41 40 
57 74 0 68 16 77 51 71 
47 33 68 0 77 39 74 78 
71 17 16 77 0 34 35 25 
80 41 77 39 34 0 28 42 
33 41 51 74 35 28 0 41 
73 40 71 78 25 42 41 0 
2 50
1P 2P 4B 6P 7P 8P 5B 3B = 264